(set-logic QF_BV)
(declare-fun _substvar_4812_ () (_ BitVec 32))
(declare-fun _substvar_6088_ () (_ BitVec 32))
(declare-fun _substvar_6046_ () (_ BitVec 32))
(declare-fun _substvar_6214_ () (_ BitVec 32))
(declare-fun _substvar_4319_ () (_ BitVec 32))
(declare-fun _substvar_5765_ () (_ BitVec 32))
(declare-fun _substvar_5724_ () (_ BitVec 32))
(declare-fun _substvar_4831_ () (_ BitVec 32))
(declare-fun _substvar_6220_ () (_ BitVec 8))
(declare-fun _substvar_4325_ () (_ BitVec 32))
(declare-fun _substvar_5727_ () (_ BitVec 32))
(declare-fun _substvar_5670_ () (_ BitVec 32))
(declare-fun _substvar_5983_ () (_ BitVec 32))
(assert (let ((?v_292 (bvadd _substvar_4325_ (_ bv19008 32)))) (let ((?v_224 (bvsub ?v_292 _substvar_4319_))) (let ((?v_386 (bvsub ?v_224 (_ bv424 32)))) (let ((?v_6 (bvadd ?v_386 (_ bv0 32)))) (let ((?v_229 (bvsub ?v_6 (_ bv512 32)))) (let ((?v_293 (bvsub _substvar_5670_ ?v_229))) (let ((?v_408 (bvsub ?v_293 (_ bv56 32)))) (let ((?v_7 (bvadd ?v_408 ?v_6))) (let ((?v_9 (bvadd _substvar_6046_ _substvar_5724_))) (let ((?v_10 (bvadd _substvar_5765_ ?v_9))) (let ((?v_415 (bvsub ?v_10 (_ bv512 32)))) (let ((?v_13 (bvadd _substvar_6088_ _substvar_4831_))) (let ( (?v_466 (bvsub _substvar_4831_ _substvar_4812_))) (let ( (?v_459 (bvsub _substvar_4812_ ?v_10))) (let ( (?v_442 (bvsub ?v_10 ?v_9))) (let ( (?v_426 (bvsub ?v_9 _substvar_5724_))) (let ( (?v_406 (bvsub _substvar_5724_ ?v_7))) (let ( (?v_343 (bvsub ?v_6 (_ bv0 32))) (?v_234 (bvadd _substvar_6214_ (_ bv2052 32)))) (let ( (?v_232 (bvadd ?v_234 (_ bv19008 32)))) (let ( (?v_286 (bvsub ?v_232 _substvar_4319_))) (and true true true true true true true true true true true true true true true true true true true true true true true true true true true true true true true true true true true true true true true (= _substvar_6214_ (bvor (bvshl (bvor (bvshl (bvor (_ bv0 32) ((_ zero_extend 24) _substvar_6220_)) (_ bv8 32)) (_ bv0 32)) (_ bv8 32)) (_ bv0 32))) true true true true true true true true true true true true true true true true true true true true true true true true true true true true true true true true true true true true true true true true true true true true true true true true true true true true true true true true true true true true true true true true true true true true true true true true true true true true true true true true true true true true true true true true true true true true true true true true true true true true true true true true true true true true true true true true true true true true true true true true true true true true true true true true true true true true true true true true true true true true true true true true true true true true true true true true true true true true true true true true true true true true true true true true true true true true true true true true true true true true true true true true true true true true true true true true true true true true true true true true true true true true true true true true true true true true true true true true true true true true true true true true true true true true true true true true true true true true true true true true true true true true true true true true true true true true true true true true true true true true true true true true true true true true true true true true true true true true true true true true true true true true true true true true true true true true true true true true true true true true true true true true true true true true true true true true true true true true true true true true true true true true true true true true true true true true true true true true true true true true true true true true true true true true true true true true true true true true true true true true true true true true true true true true true true true true true true true true true true true true true true true true true true true true true true true true true true true true true true true true true true true true true true true true true true true true true true true true true true true true true true true true true true true true true true true true true true true true true true true true true true true true true true true true true true true true true true true true true true true true true true true true true true true true true true true true true true true true true true true true true true true true true true true true true true true true true true true true true true true true true true true true true true true true true true true true true true true true true true true true true true true true true true true true true true true true true true true true true true true true true true true true true true true true true true true true true true true true true true true true true true true true true true true true true true true true true true true true true true true true true true true true true true true true true true true true true true true true true true true true true true true true true true true true true true true true true true true true true true true true true true true true true true true true true true true true true (bvule (_ bv42496 32) ?v_286) true true true true true true true true true true true true true true true true true true true true true true (bvule ?v_292 (_ bv573440 32)) true true true true true true true true true true true true true true true true true true true true true true true true true true true true true true true true true true true true true true true true true true true true true true true true true true true true true true true true true true true true true true true true true true true true true true true true true true true true true true true true true true true true true true true true true true true true true true true true true true true true true true true true true true true true true true true true true true true (bvult ?v_292 ?v_232) true (bvule ?v_232 (_ bv573440 32)) true true true true true (bvule _substvar_4319_ ?v_234) true true true true true true true true true true true true (bvult ?v_232 _substvar_5670_) true (bvule _substvar_5670_ (_ bv573440 32)) true true true true true true true true true true true true true true true true true true true true true true true true true true true true true true true true true true true true true true true true true true true true true true true true true true true true true true true true true true true true true true true true true (= (bvand ?v_6 (_ bv511 32)) (_ bv0 32)) true true true true (= (_ bv37888 32) ?v_343) true true true true true true true true true true true true true true true true true true true true true true true true true true true true true true true true true true true true true true true true true true true true true true true true true true true true true true true true true true true true true true true true true true true true true true true true true true true true true true true true true true true (= (_ bv37888 32) ?v_406) true true true true true true true true true true true true true true true true true true true true true true true true true true true true true true (= (bvand ?v_9 (_ bv511 32)) (_ bv0 32)) true true true true (= (_ bv37888 32) ?v_426) true true true true true true true true true true true true true true true true true true true true true true true true true true true true true true (bvult ?v_415 _substvar_5727_) (= (_ bv37888 32) ?v_442) true (not (= ?v_9 (_ bv4294967295 32))) true true true true true true true true true true true true true true true true true true true true true true (= (_ bv38400 32) ?v_459) true true true true true true true true true true true true true true true true true true true true true true true true true true true true (= (_ bv37888 32) ?v_466) true true true true true true true true true true true true true true true true true true true true true true true (= (_ bv37888 32) _substvar_5983_) true true true true true (bvsle _substvar_5983_ _substvar_6088_) true true true true true true true true true true true true true true true true true true true true true true true true (bvult ?v_13 (_ bv573440 32)) true true true true true true true true true))))))))))))))))))))))
(check-sat)
(exit)
